
%FILE DATA:	Soccer Computational Problem for MiniZinc Models	%
%AUTHOR:	Jack Wall	%
%CONTACT:  	116397063@umail.ucc.ie			%
%LAST UPDATE:	03/02/2020, 16:22:15						%
%DESCRIPTION: 	192 games played with 48 games left				%


n=16; %number of teams

%Games to play
games=[|9,5|6,5|9,10|5,8|7,5|5,16|8,1|14,16|2,9|3,11|6,7|11,13|14,11|7,12|1,7|9,2|9,15|15,2|13,12|11,14|3,7|13,11|12,3|12,16|8,12|7,11|1,6|16,8|8,16|8,3|6,14|2,7|4,12|6,10|13,2|6,9|12,9|10,8|16,12|1,8|2,16|5,7|8,2|12,5|16,3|6,12|11,9|14,9|];

%Initial points
iPoints=[39,24,34,24,31,33,23,26,36,32,32,24,46,32,41,33];

%POSITION CONSTRAINTS
% [|teamID, operator, position|...]
% operators index:
%  1 for =  operator
%  2 for >  operator
%  3 for >= operator
%  4 for <  operator
%  5 for <= operator
positionConstraints=[|13,3,1|6,5,2|];